cost: 1086.11
Route 1:           0    4   48   43   41   12    6    0
Route 2:           0   10    7   42   37   20    0
Route 3:           0   23   19   47   26    9   38   13   22    0
Route 4:           0   24   33   28   15    0
Route 5:           0   32   31   11   30   17   14    1    0
Route 6:           0   34   16    5   45   25    0
Route 7:           0   44   40   39    8    3   27    0
Route 8:           0   46   36   18   21    2    0
Route 9:           0   49   29   50   35    0
